CapLotSizing_PM/src/Instancias/NCLSHT/6i18p2m/NBA07.OUT
 CG ITER, OVMR, OVMRUB =           1   25782.0019531   25781.9960938
 CG ITER, OVMR, OVMRUB =           2   25121.7109375   25781.9960938
 CG ITER, OVMR, OVMRUB =           3   25644.8535156   25781.9960938
 CG ITER, OVMR, OVMRUB =           4   20927.1523438   25781.9960938
 CG ITER, OVMR, OVMRUB =           5   20758.1972656   25781.9960938
 CG ITER, OVMR, OVMRUB =           6   20921.9042969   25781.9960938
 CG ITER, OVMR, OVMRUB =           7   21068.8437500   25781.9960938
 CG ITER, OVMR, OVMRUB =           8   21293.6484375   25781.9960938
 CG ITER, OVMR, OVMRUB =           9   21368.1054688   25781.9960938
 CG ITER, OVMR, OVMRUB =          10   21476.6523438   25781.9960938
 CG ITER, OVMR, OVMRUB =          11   21584.7011719   25781.9960938
 CG ITER, OVMR, OVMRUB =          12   21689.8613281   25781.9960938
 CG ITER, OVMR, OVMRUB =          13   21795.0429688   25781.9960938
 CG ITER, OVMR, OVMRUB =          14   21904.7226562   25781.9960938
 CG ITER, OVMR, OVMRUB =          15   22027.7031250   25781.9960938
 CG ITER, OVMR, OVMRUB =          16   22126.6738281   25781.9960938
 CG ITER, OVMR, OVMRUB =          17   22231.0507812   25781.9960938
 CG ITER, OVMR, OVMRUB =          18   22335.3925781   25781.9960938
 CG ITER, OVMR, OVMRUB =          19   22452.1464844   25781.9960938
 CG ITER, OVMR, OVMRUB =          20   22565.5292969   25781.9960938
 CG ITER, OVMR, OVMRUB =          21   22660.8964844   25781.9960938
 CG ITER, OVMR, OVMRUB =          22   22773.5039062   25781.9960938
 CG ITER, OVMR, OVMRUB =          23   22881.0976562   25781.9960938
 CG ITER, OVMR, OVMRUB =          24   22973.5976562   25781.9960938
 CG ITER, OVMR, OVMRUB =          25   23064.1835938   25781.9960938
 CG ITER, OVMR, OVMRUB =          26   23155.8828125   25781.9960938
 CG ITER, OVMR, OVMRUB =          27   23251.4628906   25781.9960938
 CG ITER, OVMR, OVMRUB =          28   23351.1777344   25781.9960938
 CG ITER, OVMR, OVMRUB =          29   23431.5722656   25781.9960938
 CG ITER, OVMR, OVMRUB =          30   23511.4746094   25781.9960938
 CG ITER, OVMR, OVMRUB =          31   23585.7871094   25781.9960938
 CG ITER, OVMR, OVMRUB =          32   23663.2304688   25781.9960938
 CG ITER, OVMR, OVMRUB =          33   23742.3105469   25781.9960938
 CG ITER, OVMR, OVMRUB =          34   23816.8320312   25781.9960938
 CG ITER, OVMR, OVMRUB =          35   23886.6777344   25781.9960938
 CG ITER, OVMR, OVMRUB =          36   23966.2070312   25781.9960938
 CG ITER, OVMR, OVMRUB =          37   23981.9707031   25781.9960938
 CG ITER, OVMR, OVMRUB =          38   23987.8769531   25781.9960938
 CG ITER, OVMR, OVMRUB =          39   23993.6152344   25781.9960938
 CG ITER, OVMR, OVMRUB =          40   23997.6035156   25781.9960938
 CG ITER, OVMR, OVMRUB =          41   23999.7421875   25781.9960938
 CG ITER, OVMR, OVMRUB =          42   24001.1972656   25781.9960938
 CG ITER, OVMR, OVMRUB =          43   24003.4003906   25781.9960938
 CG ITER, OVMR, OVMRUB =          44   24003.2343750   25781.9960938
 CG ITER, OVMR, OVMRUB =          45   24004.8085938   25781.9960938
 CG ITER, OVMR, OVMRUB =          46   24004.6074219   25781.9960938
 CG ITER, OVMR, OVMRUB =          47   24006.4628906   25781.9960938
 CG ITER, OVMR, OVMRUB =          48   24005.7851562   25781.9960938
 CG ITER, OVMR, OVMRUB =          49   24006.1796875   25781.9960938
 CG ITER, OVMR, OVMRUB =          50   24007.9609375   25781.9960938
 CG ITER, OVMR, OVMRUB =          51   24008.3417969   25781.9960938
 CG ITER, OVMR, OVMRUB =          52   24008.3945312   25781.9960938
 CG ITER, OVMR, OVMRUB =          53   24008.8066406   25781.9960938
 CG ITER, OVMR, OVMRUB =          54   24008.8066406   25781.9960938
OVLB =   24008.8066406 OVLUB =   25781.9960938 TIME =      12.3000002
